
 102   30
  10   10   10   10   10   10   10   10   10   10   10   10   10   10   10   10   10   10   10   10   10   10   10   10   10   10   10   10   10   10

   0   0   0   0   0   0   0   0   0   0   0   0   0   0   0   0   0   0   0   0   0   0   0   0   0   0   0   0   0   0   0  31 2 3 4 5 6 7 8 9 10 11 12 13 14 15 16 18 19 20 21 23 24 26 27 29 32 33 37 39 42 47 49 
   4   0   0   0   2   0   1   0   0   0   0   0   0   0   0   0   0   1   0   0   0   0   0   0   1   0   0   0   0   0   0  17 73 72 67 66 61 60 58 57 56 55 48 43 41 36 31 30 25 
   4   0   0   0   0   0   0   1   0   0   0   0   0   1   0   0   2   0   0   0   0   0   0   0   0   0   0   0   0   0   2  12 100 67 60 58 57 54 48 41 38 35 30 17 
   4   0   0   0   0   0   0   0   0   0   0   0   1   0   0   0   6   0   0   0   1   0   0   0   0   0   1   0   0   0   0  21 99 95 93 72 68 67 66 65 64 61 60 59 56 55 54 53 52 50 38 36 28 
   8   1   0   2   0   0   0   0   0   0   5   0   9   0   0   0   4   0   1   1   0   0   0   0   5   1   0   0   0   0   6  10 99 72 60 54 50 44 43 28 25 17 
   4   5   0   0   0   0   0   0   0   0   0   0   0   0   0   0   0   0   0   0   0   0   0   0   0   0   0   0   0   0   0  12 73 66 64 62 61 55 54 53 51 40 31 22 
  10   0   3   6   0   0   0   0   0   0   0   0   0   0   0   0   3   0   0   0   4   0   0   1   0   0   0   0   0   0   0  16 99 73 67 66 65 61 60 58 57 56 55 52 43 41 36 25 
   2   0   0   6   0   0   0   0   1   0   0   0   0   0   0   1   5   0   0   0   0   0   0   4   0   0  10   0   1   0   6  15 97 94 73 72 71 67 66 64 61 58 57 56 51 38 31 
   3   5   8   0   0   0   0   0   0   0   0   0   6   0   0  10   0   0   0   6   0   0   1   0   6   0   0   0   0   0   0  20 100 99 97 95 94 93 90 73 71 65 64 62 60 58 57 56 51 50 46 38 
   3   0   0   4   0   0   0   0   0   0   0   0   0   0   0   0   0   0   0   8   0   0   0   0   0   0   0   0   0   0   0  18 100 97 95 93 91 73 72 71 68 65 59 58 57 56 54 51 40 38 
   1   0   0   0   0   0   0   0   0   0   0   0   0   4   0   0   0   0   6   0   0   1   0   0   0   0   0   0   0   0   0  17 100 99 95 94 93 73 72 71 67 66 64 61 59 58 57 45 38 
   4   0   0   0   0   0   0   6   0   1   0   1   4   0   0   0   0   0   6   0   0   0   0   0   0   0   0   0   0   0   0  14 96 95 92 91 89 73 72 65 61 59 58 57 48 34 
   4   0   0   0   9   0   0   0   0   0   0   0   0   0   0   7   0   0   0   9   0   0   0   0   0   3   0   0   0   0   5  14 98 92 89 73 72 71 70 61 60 59 58 51 44 34 
  10   7   0   4   0   0   0   0   0   0   0   0   0   0   0   0   0   0   0   0   0   0   0   0   0   0   0   1   0   0   2  15 99 98 96 93 89 73 70 68 65 63 60 58 56 43 41 
   4   0   5   0   0   0   0   0   0   0   0   0   0   0   0   0   0   0   0   0   0   0   0   0   0   0   6   0   0   0   0  16 99 97 95 94 93 90 81 70 69 66 65 58 51 50 46 43 
   6   0   0   0   0   0   0   0   0   0   0   0   0   0   0   0   0   0   0   7   0   0   0   0   0   0   0   0   0   0   0  12 100 97 95 94 93 83 70 62 60 58 43 38 
   8   0   0   5   0   0   0   0   0   0   0   0   0   0   0   0   0   0   0   0   0   0   0   0   0   0   0   0   0   0   0   9 97 94 92 87 84 66 61 55 31 
   2   0   0   0   3   0   0   5   0   0   0   0   0   0   0   0   0   0  10   0   0   0   0   0   0   0   6   7   0   0   0   8 99 97 92 63 60 58 56 31 
   1   0   0   0   0   0   0   0   0   0   0   0   0   0   0   0   0   6   0   0   4   0   0   0   0   0   0   0   0   0   0  14 101 100 99 97 94 89 72 70 64 58 56 55 54 51 
   4   0   7   7   0   2   0   0   0   0   0   7   0   0   2   5   0   0   4   0   0   0   0   0   0   0   7   7   0   0   0  10 99 97 93 70 64 62 59 58 51 38 
   8   0   0   0   0   0   0   0   0   0   0   0   0   0   6   0   0   0   0   0   0   0   0   0   0   0   0   0   0   0   0  18 100 99 95 93 92 90 87 86 85 84 82 80 72 71 69 64 59 52 
   9   0   0   0   0   0   9   0   0   0   2   0   0   0   0   0   8   0   0   0   0   0   0   0   9   0   0   6   4   0   0  18 100 97 96 94 93 92 90 89 85 83 81 79 72 70 63 60 58 56 
  10   0   0   0   0   0   0   0   0  10   0   3   0   0   0   0   0   0   0   0   5   0   0   0   0   0   8   0   6   0   0  16 100 97 94 92 90 89 83 81 72 71 69 65 64 60 58 51 
   8   0   0   0   0   0   0   4   0   0   0   0   0   8   0   4   0   0   0   0   0   0   0   0   8   0   0   0   7   0   0  18 97 95 91 90 89 87 86 85 82 81 73 69 67 66 65 64 63 59 
   6   0   0   0   0   0   0   0   6   0   0   0   0   0   7   0   0   9   0   0   0   0   0   0   0   0   0   0   0   0   0  10 100 97 93 91 90 88 87 83 78 38 
   1   0   0   0   0   0   0   6   7   0   0   0   0   0   0   0   0   0   0   6   0   0   0   8   0   0   9   0   0   1   0  23 101 98 97 96 95 94 92 91 90 89 88 87 86 84 83 82 81 80 78 76 72 71 70 
   5   3   0   0   0   0   0   0   0   0   0   0   0   0   0   0   0   0   0   0   0   0   0   0   0   9   0   0   0   0   0  20 99 95 94 92 91 90 89 88 87 86 85 82 81 79 77 73 69 67 65 63 
   5   7   0   0   0   0   0   9   0   0   0   0   0   0   0   0   0   0   5   0   0   0   0   0   0   0   0   6   0   0   0  15 101 100 94 92 90 89 82 81 80 78 73 71 69 57 51 
   3   8   0   0   0   0   0   0   0   0   0   0   0   0   7   0   0   0   0   0   0   6   0   0   0   0   0   0   0   0   0  11 95 93 91 89 81 67 66 65 59 58 48 
   3   0   0   0   0   0   0   0   0   0   0  10   0   0   0   0   0   5   0   0   0   0   0   0   0   0   5   0   0   0   0   9 99 93 90 71 69 64 59 52 50 
   9   7   0   0   0   0   0   0   0   0   0   0   0   0   0   0   0   0   0   6   0   0  10   0   0   0   0   0   0   0   7  18 101 98 96 95 93 91 90 89 88 86 85 77 74 70 69 68 65 59 
   7   0   0   0   0   1   0   0   0   7   0   0   0   0   0   0   0   0   4   0  10   0   0   0   0   0   0   0   0   0   0  15 91 90 88 87 86 85 84 82 81 71 70 66 65 63 56 
   6   0   0   0   0   0   0   0   0   6   0   0   0   8   0   0   0   0   0   0   0   0   0   7   0   0   5   0   0   0   0  12 101 94 92 90 89 81 80 69 66 64 59 51 
   3   0   5   0   0   0   0   0   0   0   0   7   0   0   0   0   9   0   9   0   0   0   0   0   0   0   0   0   0   0   0  16 100 99 94 93 90 88 87 83 82 81 79 78 77 69 67 63 
  10   0   0   0   4   9   0   0   0   0   0   0   0   0   6   0   0   7   0   0   0   0   0   0   0   0   0   0   0   0   0  17 98 97 93 91 89 87 86 85 84 82 81 80 78 77 75 72 69 
   8   0   0   0   0   7   0   0   0   5   0   5   0   0   0   0   5   0   0   5   0   0   0   0   0   0   0   0   0   0   0  14 100 98 97 94 92 90 84 83 79 78 77 70 69 63 
   5   0   0   0   0   0   0   0   0   0   0   0   0   0   0   0  10   0   0   0   0   0   0   0   0   0   0   0   5   0   0  13 100 95 93 90 89 88 84 83 80 77 75 71 61 
  10   0   0   0   0   0   0   0   0   0   0   0   0   7   0   0   0   0   0   0   0   0   0   0   0   0   0   0   0   6   0  13 101 98 96 92 89 85 84 82 81 79 77 69 63 
   8   0   0   0  10   0   0   0   0   0   0   0   0   0   0   0   0   0   2   0   0   0   0   0   0   0   0   0   0   0   0  10 96 94 91 90 89 85 81 72 68 56 
   5   0   3   0   0   0   0   0   0   0   0   0   0   0   0   0   0   0   0   0   5   0   0   0   0   0   0   0   4   0   5  14 99 96 94 90 89 88 87 86 84 82 81 78 77 70 
   6   0   0   0   8   0   0   0   0   0   0   0   0   0   4   0   0   0   0   0   5   0   0   0   0   8   0   0   0   0   0  13 95 90 87 85 84 83 82 81 80 75 74 71 69 
   7   0   0   0   0   0   0   0   0   0   0   0   0   0   0   6   0   0   0   0   0   6   0   0   7   0   0   7   0   0   0  10 86 85 84 82 81 77 72 71 69 63 
   3   0   0  10   0   4   0   0   0   0   0   0   0   0   0   0   0   0   0   5   0   0   0   0   0   5   0   0   0   0   5   9 92 91 87 86 85 82 75 71 64 
   4   5   0   0   0   0   0   0   2   0   0   0   0   0   0   0   0   0   0   0   0   0   0   0   0   0   0   0   0   0   0  10 95 93 85 82 81 80 78 75 74 69 
  10   0   0   0   0  10   4   6   0   0   0   0   0   0   0   0   0   0   0   0   5   0   6   0   0   0   8  10   0   0   0  10 91 90 86 85 81 79 77 75 74 69 
   4   6   0   0   7   0   0   0   0   0   0  10   0   0   0   0   0   8   0   0   0   0   0   0   0   0   0   0   0   0   0   8 91 88 87 84 82 77 76 63 
   9   0   0   0   0   0   0   0   0   0   0   0   0   0   0   0   8   0   0   0   0   0   5   0   0   0   3   0   0   7   0   8 92 90 89 83 81 78 75 64 
   9   0   0   0   0   0   0   0   0   0   0   0   0   0   0   0   0   0   0   6   9   0   0   0   0   0   0   0   7   0   0   9 88 85 83 80 78 77 76 74 71 
   8   0   8   0   0   0   0   0   0   0   0   0   7   0  10   0   4   0   0   0   9   0   0   0   0   0   3   0   8   0   0   7 93 91 84 82 79 76 63 
   7   8   0   0   0   0   9   0   0   0   0   0   0   0   0   0   0   0   0   0   0   0   0   0   7   7   0   0   0   0   0   9 96 92 87 86 83 80 77 75 74 
   1   0   0   0   5   0   9   0   0   0   0   0   0   0   4   6   0   0   5   0   0   0   0   0   0   0   0   0   0   0   0   7 86 85 79 77 76 75 74 
   8   0   0   0   5   0   0   0   0   0   0   0   0   0   5   0   0   0   8   0   0   0   0   0   0   0   0   7   0   6   0   7 94 91 89 88 81 79 77 
   1   0  10   0   0   0   0   0   0   3   0   0   0   0   0   0   0   0   0   0   0   7   6  10   0   0   0   0   0   0   0   7 83 82 81 78 77 75 74 
   6   8   0   0   0   0   0   0   0   7   0   0   0   0   8   8   4   0   0   0   0   7   7   0   0   0   8   0   0   0   4   6 82 81 78 77 74 69 
   3   0   0   0   0   0   0   0   0   0   0   0   0   0   0   0   0   0   0   0   0   0   0   0   0   0   0   0   7   0   0   4 91 83 79 63 
   6   0   0   0   0   0   0   0   0   0   0   0   0   0   5   0   0   0   0   0   0   0   0   0   0   0   0   0   0   0   0   5 80 78 77 74 69 
   8   0   7   0   0   6   9   0   0   0   0   0   0   7   0   0   0   0   0   6   0   0   0   0   0   0   2   0   0   0   0   5 87 84 83 77 70 
   8   0   0   0   0   0   0   0   0   0   1   0   0   0   0   5   0   3   0   0   0   0   3   0   0   0   0   0   0   0   0   5 87 86 84 82 76 
   8   5   0   0   9   0   0   0   0   0   7   6   8   0  10   0   0   0   0   0   0   0   0   0   0   0   0   0  10   0   0   5 83 79 78 76 75 
   1   0   0   3   0   0   0   0  10   0   0   0   0   0   4   0   0   9   0   0  10   0   0   0   0   0   0   0   0   0   0   5 80 78 77 75 74 
   2   0   0  10   0   0   0   0   0   0   0   0   0   0   0   0   0   0   0   0   0   0   0   0   0   0   5   3   0   0   0   4 81 79 78 69 
   2   0   0   0   0   9   0   0   5   0  10   4   0   0   0   0   0   0   0   0   0   0   0   0   0  10   0   0   0   0   0   4 86 82 81 74 
   5   0   0   0   0   0   5   0   0   0   0   0   3   0   0   6   0   7   0   0   0   0   7   0   0   5   0   0   0   0   0   3 80 75 74 
   5   5   0   0   0   0   2   0   9   7   0   0   0   0   0   7   0   4   0   0   0   0   0   0   0   0   7   0   0   0   0   3 88 77 74 
   6   9   0   0   0   0   0   0   0   0   0   0   0   0   0   0   0   0   0   0   0   0   0   0   6   0   0   0   0   0   0   2 78 76 
   5   0   0   0   0   0   3   0   0   0   0   0   9   0   0   7   0   0   0   0   0   0   0   0   0   0   9   0   0   0   7   2 83 74 
   6   0   0   0   0   0   0   0   0   0   0   0   5   0   0   0   0   0   0   0   0   0   0   0   0   0   0   0   0   5   0   2 84 76 
  10   0   0   0   0   0   0   0   0   0   0   0   0   0   6   0   0   0   0   0   0   0   0   8   0   0   4   6   0   0   0   2 82 76 
   3   9   0   0   0   0   0   0   0   9   0   0   0   0   0   0   5   0   0   0   0   0   0   0   0   0   5   4   0   4   0   1 76 
   5   0   0   0   0   0   0   8   0   0   0   0   0   0   0   0   0   0   0   0   0   0   0   0   0   0   0   0   0   6   0   1 75 
   9   0   0   0   0   0   0   0   0   0   0   0   0   0   0   0   0   0   0   0   0   0   0   0   0   0   0   0   0   0   7   1 79 
   7   0   0   0   0   0   0   0   0   0   0   0   0   0   0   0   0   0   0   0   0   0   0   0   0   0   0   0   0   0   0   1 74 
   6   0   0   0   0   7   0   0   0   0   0   0   0   0   0   0   0   0   0   0   0   0   0   0   0   0   0   0  10   0   0   1 75 
   2   0   0   5   0   0   0   0   0   0   0   0   0   7   0   0   0   0   0   0   0   0   0   0   0   0   0   0   0   0   0   1 102
  10   0   0   0   0  10   7   6   0   0   0   0   0   0   0   0   0   0   0   0   0   0   0   0   6   0   7   0   0   0   0   1 102
   9   0   0   0   5   7   0   0   0   0  10   0   0   0   0   0   0   0   0   0   0   0   0   0   0   0   0   0   0   0   0   1 102
   3   0   0   0   0   0   7   0   6   0   0   0   0   0   0   0   0   0   0   0   0   0   0   0   0   0   8   0   0   0   0   1 102
   1   0   0   0   0   0   0   0   0   0   0   0   0   0   0   0   0   0   0   0   0   0   0   0   0   0   0   0   0   0   0   1 102
   7   0   0   9   0   0   0   0   0   0   0   0   0   0   0   0   0   0   0   0   0  10   0   0   0   0   0   0   5   0   0   1 102
   9   0   0   6   2   0   0   0   0   0   0   0   0   0   0   0   0   9   0   0   4   0   0   0   7   0   0   0   9   0   0   1 102
   7   0   0   0   0   0   0   0   0   0   0   0   0   0   0   0   0   9   0   0   0   0   0   0   3   3   0   0   0  10   0   1 102
   8   4   0   0   0   0   0   8   0   0   0   0   0   0   0   0   0   0   9   0   5   0   0   0   0   0   0   0   0   0   0   1 102
   6   0   0   0   0   3   0   4   0   0   0   0   0   0   0   0   0   0   0   0   0   0   0   0   0   9   0   0   0   0   0   1 102
   3   0   4   0   0   0   0   0   0   0   0   6   0   0   0   0   0   4   0   0   0   0   0   0   0   0   0   6   0   0   0   1 102
   7   0   0   0   6   0   0   0   0   0   0   0   0   7   0   0   0   3   0   0   0   0   0   0   0   0   0   0   7   0   0   1 102
   2   0   0   0   0   0   0   0   0   0   0   0   0   0   0   0   9   0   0   0   0   0   0   0   7   0   0   7   0   0   6   1 102
   8   0   0   0   0   0   0   0   0   0   0   0   0   0   0   0   0   0   0   0   0   0   0   0   0   0   0   0   0   0   0   1 102
   9   0   0   0   0   0   0   0   0   5   6   0   0   0   0   0   0   0   0   7   7   5   0   5   0   0   0   0   0   0   6   1 102
   3   0   0   0   0   5   0   6   0   0   0   0   0   0   0   0   0   0   0   0   0   0   0   5   0   0   0   0   0   0   0   1 102
  10   0   0   0   0   0   0   0   0   0   0   0   0   0   6   0   0   0   0   6   0   0   0   0   0   0   0   0   0   0   0   1 102
   8   0   0   0   0   6   0   0   0   6   0   0   0   0   0   0   0   0   0   0   7   0   0   0   0   0   0   0   0   0   0   1 102
   9   0   0   0   0   0   0   0   0   0   0   0   0   0   0   0   0   0  10   0   0   0   0   6   0   0   0   0   0   9   0   1 102
   1   0   0   0   0   0   0   7   0   0   7   0   0   0   0   0   5   0   7   0   0   0   7   0   0   0   0   0   0   0  10   1 102
   6   0   6   0   0   0   0   0   0   0   0   4   8   0   0   0   8   0   4   0   0   0   8   0   0   0   0   0   0   0   4   1 102
   8   0   0   0   0   4   0   0   7   0   0   0   0   0   6   0   0   0   0   0   0   0   0   0   0   0   0   0   0   0   7   1 102
   7   0   0   0   5   0   0   0   0   0   0   0   0   0   0   0   0   0   0   0   0   0   0   0   0   0   0   0   0   0   9   1 102
   6   0   0   7   0   0   0   8   0   0   0   0   0   5   0   0   0   0   0   0   0   0   0   0   0   0   0   0   4   0   0   1 102
   7   6   0   0  10   0   0   0   0   0   0   0   0   0   0   0   0   0   0   0   0   0   0   0   0   0   0   0   2   0   0   1 102
   3   0   0   0   0   0   0   0   7   0   0   0   0   0   0   0   0   0   0   0   0   0   0   0   0   0   0   0   0   0   0   1 102
   3   0   0   0   0   0   7   0   0   0   6   0   0   0   0   0   0   0   0   0   0   0   0   0   0   0   0   7   6   0   0   1 102
   4   0   0   0   0   0   0   0   0   0   0   9   0   0   0   0   7   0   0   0   0   0   0   0   0   6   0   0   0   0  10   1 102
   0   0   0   0   0   0   0   0   0   0   0   0   0   0   0   0   0   0   0   0   0   0   0   0   0   0   0   0   0   0   0   0 
